1 -1 -2 0
1 1 3 0
1 1 -4 0
1 1 -5 0
1 2 6 0
1 -2 3 0
1 2 -1 0
1 -7 8 0
1 -7 9 0
1 7 -10 0
1 -7 -3 0
1 7 11 0
1 -7 -12 0
1 10 8 0
1 -10 9 0
1 -10 13 0
1 -10 3 0
1 -10 -11 0
1 10 14 0
1 10 12 0
1 -10 5 0
1 3 15 0
1 3 16 0
1 -3 -2 0
1 -3 -17 0
1 -3 -18 0
1 3 19 0
1 3 7 0
1 -5 -20 0
1 -5 -21 0
1 5 -16 0
1 -5 -10 0
1 -5 2 0
1 5 -22 0
1 -5 1 0
1 -6 23 0
1 -6 24 0
1 -6 10 0
1 -6 -2 0
1 6 -22 0
1 6 25 0
1 -6 7 0
1 12 -21 0
1 12 -24 0
1 -12 -10 0
1 12 2 0
1 -12 -6 0
1 -12 22 0
1 -12 -25 0
1 -12 -7 0
1 -12 1 0
1 12 26 0
1 19 -8 0
1 19 9 0
1 -16 -8 0
1 -16 9 0
1 -16 -24 0
1 16 19 0
1 16 5 0
1 -18 8 0
1 -18 9 0
1 18 -15 0
1 -18 27 0
1 18 -14 0
1 18 28 0
1 15 -8 0
1 15 27 0
1 -15 -29 0
1 15 28 0
1 -14 30 0
1 -14 9 0
1 -14 16 0
1 -14 -31 0
1 14 -32 0
1 -14 -33 0
1 14 19 0
1 14 -34 0
1 -9 -35 0
1 -9 36 0
1 9 15 0
1 9 16 0
1 -9 -37 0
1 -9 31 0
1 9 -32 0
1 -9 -14 0
1 9 7 0
1 9 -34 0
1 -11 8 0
1 11 21 0
1 -11 16 0
1 -11 37 0
1 11 -38 0
1 -11 18 0
1 -11 34 0
1 -8 39 0
1 8 40 0
1 -8 21 0
1 8 -10 0
1 -8 37 0
1 8 41 0
1 8 -22 0
1 8 -18 0
1 8 -19 0
1 32 30 0
1 -32 -9 0
1 32 -27 0
1 -32 -29 0
1 32 22 0
1 -32 -28 0
1 -30 -9 0
1 -30 29 0
1 30 32 0
1 30 14 0
1 -30 -42 0
1 -31 -9 0
1 -31 -27 0
1 31 29 0
1 -31 28 0
1 31 42 0
1 35 -39 0
1 -35 29 0
1 -35 14 0
1 -35 28 0
1 35 -42 0
1 42 15 0
1 -42 -43 0
1 42 -31 0
1 -42 -32 0
1 42 44 0
1 29 -30 0
1 29 15 0
1 29 43 0
1 -29 31 0
1 29 -32 0
1 28 15 0
1 -28 27 0
1 -28 43 0
1 28 31 0
1 -28 32 0
1 -28 45 0
1 28 -46 0
1 28 -47 0
1 27 -35 0
1 27 -48 0
1 27 49 0
1 -27 -31 0
1 -27 18 0
1 27 46 0
1 -27 47 0
1 -27 34 0
1 4 -50 0
1 -4 1 0
1 -4 51 0
1 -50 52 0
1 -50 53 0
1 50 54 0
1 -50 -55 0
1 -50 4 0
1 -56 -53 0
1 56 57 0
1 56 58 0
1 56 -59 0
1 -56 -60 0
1 13 57 0
1 13 -58 0
1 13 10 0
1 -13 61 0
1 13 -62 0
1 -13 59 0
1 -53 -63 0
1 -53 -50 0
1 53 55 0
1 -53 64 0
1 -53 -25 0
1 -53 56 0
1 53 4 0
1 55 -53 0
1 55 -50 0
1 -55 65 0
1 52 66 0
1 -52 13 0
1 -52 -54 0
1 52 64 0
1 -52 -67 0
1 -52 68 0
1 52 -56 0
1 54 69 0
1 -54 70 0
1 54 -67 0
1 -54 -56 0
1 54 -4 0
1 65 -53 0
1 65 24 0
1 -65 -58 0
1 -65 -6 0
1 -65 12 0
1 24 53 0
1 -24 -57 0
1 24 -16 0
1 24 58 0
1 24 -69 0
1 24 -55 0
1 -24 -62 0
1 -24 59 0
1 -25 -57 0
1 25 -58 0
1 25 71 0
1 25 72 0
1 25 6 0
1 -25 55 0
1 25 -62 0
1 25 -18 0
1 25 59 0
1 25 -73 0
1 -25 12 0
1 -23 -15 0
1 -23 -66 0
1 -23 71 0
1 23 72 0
1 23 -62 0
1 -58 23 0
1 -58 -74 0
1 -58 13 0
1 -58 -75 0
1 58 -65 0
1 -59 -39 0
1 -59 -21 0
1 59 24 0
1 59 58 0
1 59 41 0
1 59 -25 0
1 -59 -76 0
1 59 -56 0
1 -57 77 0
1 -57 78 0
1 -57 63 0
1 57 24 0
1 57 -13 0
1 57 62 0
1 57 -25 0
1 57 -65 0
1 57 -56 0
1 -62 -78 0
1 62 -63 0
1 -62 -23 0
1 -62 -24 0
1 62 -25 0
1 -62 -79 0
1 -62 -65 0
1 62 -56 0
1 -22 -58 0
1 22 -71 0
1 22 -72 0
1 -22 6 0
1 -22 64 0
1 -22 59 0
1 -22 -73 0
1 -22 -12 0
1 -22 -5 0
1 21 71 0
1 -21 6 0
1 -21 -11 0
1 -21 22 0
1 -21 -59 0
1 -21 5 0
1 41 -20 0
1 41 39 0
1 41 -58 0
1 -41 80 0
1 -41 -17 0
1 -41 11 0
1 41 59 0
1 -39 -35 0
1 39 8 0
1 39 78 0
1 -39 -58 0
1 -39 -80 0
1 -39 -11 0
1 39 41 0
1 39 81 0
1 -72 39 0
1 -72 -21 0
1 -72 -82 0
1 -72 -37 0
1 -72 41 0
1 72 -25 0
1 -72 -83 0
1 72 47 0
1 72 34 0
1 81 -84 0
1 -81 -83 0
1 81 47 0
1 -71 77 0
1 71 -85 0
1 -71 86 0
1 71 -87 0
1 71 -41 0
1 -71 -22 0
1 -71 83 0
1 -73 -21 0
1 -73 -71 0
1 73 -75 0
1 73 41 0
1 73 -25 0
1 73 83 0
1 -73 -88 0
1 -37 -8 0
1 37 -27 0
1 -37 80 0
1 37 -17 0
1 37 14 0
1 37 81 0
1 -37 -34 0
1 -34 -77 0
1 -34 -8 0
1 -34 27 0
1 34 -11 0
1 -34 14 0
1 34 -28 0
1 -49 40 0
1 -49 -27 0
1 -49 72 0
1 49 -80 0
1 -49 -81 0
1 49 -26 0
1 47 20 0
1 -47 27 0
1 -47 49 0
1 -47 -80 0
1 47 -38 0
1 -47 33 0
1 47 81 0
1 -47 -88 0
1 17 39 0
1 17 -89 0
1 17 49 0
1 17 -3 0
1 -17 41 0
1 17 46 0
1 -20 -39 0
1 20 49 0
1 20 -37 0
1 -20 -41 0
1 20 -5 0
1 20 -90 0
1 -20 -91 0
1 20 -34 0
1 -80 -39 0
1 -80 89 0
1 80 92 0
1 -80 86 0
1 -80 -49 0
1 80 -41 0
1 -80 90 0
1 80 -93 0
1 -80 -83 0
1 -80 47 0
1 80 26 0
1 -80 34 0
1 -26 39 0
1 26 -37 0
1 26 -12 0
1 -26 -90 0
1 -26 -93 0
1 26 83 0
1 26 -47 0
1 26 -94 0
1 43 -20 0
1 -43 40 0
1 43 -27 0
1 -43 -29 0
1 43 42 0
1 -43 46 0
1 -46 -36 0
1 -46 27 0
1 -46 -28 0
1 -46 42 0
1 -46 83 0
1 -95 20 0
1 -95 92 0
1 95 -38 0
1 -95 -33 0
1 91 -36 0
1 91 48 0
1 91 96 0
1 91 -38 0
1 -91 -45 0
1 33 -97 0
1 -33 43 0
1 33 -49 0
1 33 14 0
1 -33 -98 0
1 33 46 0
1 -36 97 0
1 -36 -99 0
1 36 100 0
1 36 101 0
1 -36 95 0
1 36 49 0
1 36 102 0
1 -36 -103 0
1 -36 33 0
1 36 -104 0
1 36 91 0
1 36 47 0
1 -38 97 0
1 -38 105 0
1 38 89 0
1 38 -95 0
1 38 11 0
1 -38 90 0
1 -38 46 0
1 -40 -8 0
1 -40 -106 0
1 40 -105 0
1 -40 43 0
1 40 -102 0
1 -40 -38 0
1 -40 107 0
1 40 90 0
1 40 -91 0
1 101 36 0
1 -101 -96 0
1 -101 45 0
1 -101 -33 0
1 -104 -48 0
1 104 -101 0
1 104 -45 0
1 104 -90 0
1 100 -36 0
1 100 -48 0
1 103 -96 0
1 103 107 0
1 -44 -100 0
1 44 108 0
1 44 103 0
1 44 -104 0
1 -44 42 0
1 44 91 0
1 -44 109 0
1 -96 110 0
1 -96 100 0
1 96 29 0
1 -96 -101 0
1 -96 91 0
1 45 -110 0
1 -45 97 0
1 45 28 0
1 48 110 0
1 48 -97 0
1 -48 -27 0
1 -48 101 0
1 48 -45 0
1 -48 103 0
1 48 104 0
1 48 91 0
1 51 4 0
1 -60 -111 0
1 60 -61 0
1 -60 112 0
1 60 -113 0
1 -60 -114 0
1 60 -115 0
1 60 -116 0
1 -61 117 0
1 61 -111 0
1 61 -13 0
1 -61 112 0
1 -61 -113 0
1 -61 116 0
1 -114 118 0
1 -114 -66 0
1 -114 -69 0
1 -114 -119 0
1 -114 -67 0
1 -114 120 0
1 -114 68 0
1 -114 60 0
1 -117 114 0
1 -117 -66 0
1 117 -61 0
1 117 119 0
1 -117 60 0
1 -117 51 0
1 113 -118 0
1 -113 121 0
1 -113 122 0
1 113 -123 0
1 -113 51 0
1 -124 -118 0
1 -124 -61 0
1 124 125 0
1 124 -123 0
1 68 -117 0
1 -68 111 0
1 68 -112 0
1 68 54 0
1 -68 115 0
1 68 123 0
1 69 -52 0
1 -69 -117 0
1 69 -112 0
1 69 -68 0
1 -69 -116 0
1 67 126 0
1 -67 -66 0
1 67 -117 0
1 -67 111 0
1 67 -127 0
1 67 115 0
1 -67 116 0
1 66 52 0
1 -66 23 0
1 -66 -117 0
1 66 111 0
1 66 127 0
1 -66 -128 0
1 -66 67 0
1 116 66 0
1 116 -69 0
1 116 129 0
1 116 -64 0
1 -112 -130 0
1 112 63 0
1 -112 69 0
1 112 61 0
1 -112 129 0
1 -112 -116 0
1 112 -67 0
1 -112 60 0
1 -115 130 0
1 -115 -118 0
1 -115 -69 0
1 -115 -61 0
1 115 119 0
1 115 68 0
1 -115 -131 0
1 -115 -60 0
1 -111 130 0
1 -111 -132 0
1 -111 118 0
1 -111 -69 0
1 111 -133 0
1 111 61 0
1 111 115 0
1 -111 -134 0
1 -111 119 0
1 -111 -67 0
1 -111 68 0
1 64 126 0
1 -64 -52 0
1 -64 63 0
1 -64 57 0
1 -64 127 0
1 -64 54 0
1 64 55 0
1 -64 -62 0
1 -64 -116 0
1 -64 -135 0
1 -63 -52 0
1 63 -21 0
1 -63 57 0
1 63 118 0
1 -63 -127 0
1 63 128 0
1 63 -54 0
1 -63 55 0
1 63 -62 0
1 -63 -116 0
1 -63 135 0
1 -136 -126 0
1 -136 78 0
1 136 -57 0
1 136 -127 0
1 -136 41 0
1 136 -137 0
1 -136 116 0
1 -136 -135 0
1 -78 -126 0
1 -78 39 0
1 -78 132 0
1 78 112 0
1 78 127 0
1 -78 -136 0
1 78 -62 0
1 126 138 0
1 -126 66 0
1 -126 -87 0
1 126 128 0
1 126 136 0
1 126 -64 0
1 126 -67 0
1 126 -139 0
1 128 -63 0
1 128 140 0
1 -128 -87 0
1 128 75 0
1 -135 141 0
1 135 -66 0
1 135 139 0
1 -135 142 0
1 -127 -63 0
1 -127 -140 0
1 127 64 0
1 127 67 0
1 75 -126 0
1 -75 143 0
1 -75 -144 0
1 -75 -57 0
1 -75 58 0
1 -75 -71 0
1 -75 -37 0
1 -75 129 0
1 -75 137 0
1 -75 -62 0
1 -75 -59 0
1 -75 -73 0
1 77 -126 0
1 77 -143 0
1 -77 -75 0
1 -77 -70 0
1 77 137 0
1 -77 -62 0
1 77 59 0
1 -87 -126 0
1 -87 71 0
1 -87 -49 0
1 87 -128 0
1 87 -79 0
1 -87 73 0
1 88 126 0
1 88 -143 0
1 88 145 0
1 -88 71 0
1 -88 128 0
1 -88 -70 0
1 88 137 0
1 88 -47 0
1 -88 142 0
1 144 77 0
1 -144 -53 0
1 144 86 0
1 -144 75 0
1 144 137 0
1 -144 93 0
1 -144 -88 0
1 137 -78 0
1 137 -92 0
1 137 86 0
1 137 87 0
1 137 -146 0
1 -137 -93 0
1 -137 88 0
1 143 -78 0
1 143 147 0
1 143 148 0
1 -143 -75 0
1 -143 -70 0
1 -70 -77 0
1 70 -143 0
1 70 147 0
1 70 140 0
1 70 87 0
1 70 -75 0
1 -70 149 0
1 -70 136 0
1 70 -146 0
1 -86 -71 0
1 -86 72 0
1 86 -140 0
1 86 80 0
1 86 79 0
1 86 73 0
1 86 -26 0
1 -83 71 0
1 83 86 0
1 -83 -137 0
1 -83 79 0
1 -83 -76 0
1 -83 -46 0
1 83 139 0
1 83 -26 0
1 92 -74 0
1 -92 -148 0
1 -92 -137 0
1 -92 79 0
1 92 -76 0
1 -92 93 0
1 -92 -26 0
1 93 -144 0
1 93 85 0
1 93 91 0
1 -93 150 0
1 -93 151 0
1 -74 58 0
1 -74 152 0
1 74 107 0
1 76 -153 0
1 -76 74 0
1 76 -92 0
1 -76 -87 0
1 76 59 0
1 76 154 0
1 -76 -83 0
1 145 -155 0
1 145 156 0
1 145 92 0
1 145 86 0
1 -145 87 0
1 -145 157 0
1 145 -158 0
1 -145 -146 0
1 145 -83 0
1 145 88 0
1 -79 153 0
1 -79 159 0
1 -79 -145 0
1 79 155 0
1 79 -147 0
1 79 92 0
1 -79 -86 0
1 -79 87 0
1 -79 -157 0
1 -79 -62 0
1 79 -93 0
1 -79 -83 0
1 -89 40 0
1 89 76 0
1 -89 101 0
1 -89 38 0
1 -89 90 0
1 89 -84 0
1 -90 -40 0
1 90 -74 0
1 90 85 0
1 90 -82 0
1 -90 -38 0
1 -90 -76 0
1 -90 146 0
1 90 150 0
1 -90 84 0
1 90 -26 0
1 105 100 0
1 105 -155 0
1 -105 74 0
1 105 85 0
1 -105 -160 0
1 105 38 0
1 -105 -76 0
1 105 84 0
1 105 -94 0
1 107 -74 0
1 107 -85 0
1 -107 -160 0
1 -107 161 0
1 -107 158 0
1 -107 150 0
1 107 -94 0
1 -82 162 0
1 -82 -163 0
1 82 164 0
1 -82 -165 0
1 -82 102 0
1 82 107 0
1 -82 -90 0
1 82 84 0
1 -84 162 0
1 84 -163 0
1 -84 105 0
1 -84 92 0
1 84 -82 0
1 -84 -164 0
1 -84 -102 0
1 -84 -93 0
1 84 -166 0
1 85 150 0
1 85 -167 0
1 85 157 0
1 85 107 0
1 85 -90 0
1 -85 93 0
1 150 153 0
1 150 105 0
1 150 -85 0
1 150 168 0
1 -150 157 0
1 150 90 0
1 150 -169 0
1 -97 -153 0
1 97 82 0
1 97 -160 0
1 97 161 0
1 -97 -102 0
1 -97 38 0
1 97 33 0
1 -97 -84 0
1 97 -94 0
1 102 170 0
1 102 48 0
1 -102 -33 0
1 -102 -84 0
1 102 -94 0
1 163 -99 0
1 163 -82 0
1 163 -165 0
1 -163 161 0
1 -163 -171 0
1 163 98 0
1 -163 84 0
1 -163 -94 0
1 165 170 0
1 165 -163 0
1 165 106 0
1 -165 160 0
1 -165 171 0
1 165 -45 0
1 -165 -84 0
1 -165 94 0
1 161 97 0
1 161 105 0
1 -161 172 0
1 -161 173 0
1 -161 108 0
1 161 165 0
1 161 17 0
1 -161 -102 0
1 -161 174 0
1 170 -163 0
1 170 -97 0
1 -170 -173 0
1 170 -108 0
1 -170 161 0
1 170 -102 0
1 -170 -107 0
1 -170 174 0
1 160 162 0
1 160 105 0
1 160 172 0
1 -160 -175 0
1 -160 102 0
1 160 176 0
1 160 -94 0
1 -94 -177 0
1 94 162 0
1 -94 97 0
1 -94 105 0
1 -94 -172 0
1 -94 102 0
1 94 26 0
1 94 -178 0
1 110 106 0
1 110 -99 0
1 -110 96 0
1 -110 171 0
1 -110 98 0
1 -110 -44 0
1 -108 -170 0
1 -108 106 0
1 -108 99 0
1 108 -48 0
1 108 -171 0
1 -108 45 0
1 -108 44 0
1 -174 106 0
1 174 -99 0
1 174 -179 0
1 174 -173 0
1 -174 -171 0
1 174 -98 0
1 -174 180 0
1 174 -178 0
1 -173 -106 0
1 -173 -171 0
1 173 -180 0
1 -98 99 0
1 98 -181 0
1 98 182 0
1 98 -183 0
1 -98 -173 0
1 -98 108 0
1 98 165 0
1 98 33 0
1 98 -184 0
1 -98 174 0
1 -99 -110 0
1 99 -108 0
1 -99 -98 0
1 99 184 0
1 -99 -174 0
1 -171 -185 0
1 -171 -172 0
1 171 108 0
1 171 38 0
1 -171 -186 0
1 -171 -176 0
1 171 -174 0
1 -106 -110 0
1 106 163 0
1 -106 -40 0
1 106 -187 0
1 106 185 0
1 106 172 0
1 -106 165 0
1 -106 -174 0
1 184 -98 0
1 184 180 0
1 184 109 0
1 183 -99 0
1 183 188 0
1 -183 -98 0
1 -183 -180 0
1 -183 109 0
1 189 -99 0
1 -189 182 0
1 -189 -179 0
1 -189 98 0
1 189 180 0
1 182 -188 0
1 -182 98 0
1 182 180 0
1 182 189 0
1 109 -190 0
1 109 -182 0
1 109 -179 0
1 109 -183 0
1 109 -44 0
1 109 -189 0
1 -109 191 0
1 109 -174 0
1 179 -109 0
1 179 192 0
1 179 -183 0
1 179 173 0
1 -179 193 0
1 -179 184 0
1 -179 -174 0
1 -180 190 0
1 -180 -181 0
1 180 188 0
1 180 182 0
1 -180 -183 0
1 180 193 0
1 180 194 0
1 180 45 0
1 -188 190 0
1 -188 195 0
1 188 -196 0
1 -188 -183 0
1 188 174 0
1 -197 -198 0
1 197 -199 0
1 -197 -200 0
1 -199 -201 0
1 199 198 0
1 -199 200 0
1 -202 203 0
1 -202 -198 0
1 202 204 0
1 -202 205 0
1 202 -206 0
1 -203 61 0
1 203 204 0
1 203 -205 0
1 203 206 0
1 -203 -200 0
1 198 -121 0
1 198 122 0
1 198 -203 0
1 198 125 0
1 -198 202 0
1 -200 -121 0
1 200 203 0
1 200 -199 0
1 -200 -125 0
1 201 207 0
1 201 -206 0
1 201 202 0
1 -206 201 0
1 -206 -199 0
1 -206 -202 0
1 123 -124 0
1 123 -198 0
1 -123 -204 0
1 123 -205 0
1 123 -200 0
1 -123 208 0
1 -122 204 0
1 122 -113 0
1 122 123 0
1 -122 209 0
1 -125 -210 0
1 125 211 0
1 -125 204 0
1 -125 -200 0
1 -125 208 0
1 125 -209 0
1 -121 210 0
1 -121 211 0
1 121 -124 0
1 -121 66 0
1 121 198 0
1 -121 205 0
1 -121 212 0
1 -121 -213 0
1 -121 -200 0
1 -121 209 0
1 -205 214 0
1 -205 132 0
1 205 118 0
1 205 122 0
1 205 -203 0
1 205 123 0
1 209 214 0
1 -209 118 0
1 209 -121 0
1 209 122 0
1 -209 -203 0
1 209 205 0
1 209 134 0
1 -209 -123 0
1 -209 202 0
1 -204 214 0
1 204 208 0
1 -204 -203 0
1 -204 -125 0
1 -204 -123 0
1 208 214 0
1 -208 121 0
1 -208 -122 0
1 -208 215 0
1 208 125 0
1 -208 -216 0
1 119 210 0
1 -119 118 0
1 119 -124 0
1 119 -111 0
1 -119 -212 0
1 119 213 0
1 119 113 0
1 -118 63 0
1 118 111 0
1 -118 -205 0
1 -118 -212 0
1 -118 213 0
1 -118 115 0
1 -118 -209 0
1 134 210 0
1 134 211 0
1 -134 -111 0
1 134 -205 0
1 -134 136 0
1 134 115 0
1 -132 78 0
1 -132 -111 0
1 -132 -134 0
1 -132 -120 0
1 -132 -209 0
1 213 -132 0
1 -213 121 0
1 -213 -217 0
1 213 -218 0
1 -213 219 0
1 213 119 0
1 -213 -220 0
1 211 130 0
1 -211 221 0
1 211 118 0
1 -211 213 0
1 211 134 0
1 212 222 0
1 -212 214 0
1 -212 -132 0
1 212 -118 0
1 -212 -223 0
1 212 125 0
1 210 -222 0
1 -210 -132 0
1 -210 118 0
1 210 -121 0
1 -210 -217 0
1 -210 212 0
1 210 -215 0
1 210 -134 0
1 210 119 0
1 -129 -130 0
1 -129 211 0
1 129 224 0
1 -129 -75 0
1 129 215 0
1 -129 213 0
1 129 -225 0
1 -129 115 0
1 -129 116 0
1 130 77 0
1 130 -224 0
1 -130 111 0
1 -130 -112 0
1 -130 -127 0
1 130 -213 0
1 -130 225 0
1 130 -120 0
1 130 -115 0
1 -130 116 0
1 -218 -224 0
1 -218 -226 0
1 -218 -223 0
1 -218 213 0
1 218 -225 0
1 -218 -120 0
1 -218 -227 0
1 -218 -142 0
1 -142 -222 0
1 142 -211 0
1 -142 -226 0
1 -142 -133 0
1 142 -228 0
1 -142 213 0
1 142 120 0
1 -142 -131 0
1 -142 135 0
1 -142 88 0
1 120 -132 0
1 120 226 0
1 120 229 0
1 120 -129 0
1 120 -134 0
1 -120 -230 0
1 -120 139 0
1 226 -117 0
1 226 -231 0
1 226 232 0
1 226 140 0
1 226 -218 0
1 -226 134 0
1 226 -120 0
1 -226 -230 0
1 -226 -142 0
1 225 130 0
1 225 224 0
1 225 232 0
1 225 218 0
1 -225 -230 0
1 225 233 0
1 -224 -124 0
1 -224 234 0
1 -224 232 0
1 -224 -235 0
1 224 -217 0
1 -224 218 0
1 -224 129 0
1 224 134 0
1 224 -230 0
1 224 -233 0
1 -224 220 0
1 -140 143 0
1 140 226 0
1 -140 133 0
1 140 86 0
1 -140 131 0
1 140 227 0
1 -140 139 0
1 -139 -143 0
1 -139 133 0
1 -139 128 0
1 139 70 0
1 -139 131 0
1 -139 -83 0
1 -148 -138 0
1 148 226 0
1 -148 133 0
1 148 -92 0
1 -148 -228 0
1 148 -236 0
1 148 237 0
1 -148 131 0
1 -148 -120 0
1 148 -141 0
1 -151 138 0
1 -151 143 0
1 151 -133 0
1 -151 -237 0
1 151 70 0
1 151 120 0
1 151 131 0
1 151 227 0
1 -151 141 0
1 -227 -238 0
1 -227 -147 0
1 -227 -228 0
1 227 218 0
1 -227 239 0
1 227 151 0
1 -227 240 0
1 228 241 0
1 228 -158 0
1 228 146 0
1 -228 -142 0
1 -131 238 0
1 -131 -242 0
1 -131 148 0
1 -131 -140 0
1 131 -218 0
1 131 230 0
1 -131 142 0
1 133 238 0
1 -133 111 0
1 -133 232 0
1 133 -243 0
1 133 140 0
1 133 218 0
1 133 131 0
1 133 -230 0
1 -147 138 0
1 -147 144 0
1 147 232 0
1 147 -228 0
1 -147 79 0
1 -147 -227 0
1 146 143 0
1 -146 79 0
1 -146 -90 0
1 146 -141 0
1 -155 -244 0
1 -155 145 0
1 -155 -242 0
1 -155 236 0
1 -155 237 0
1 155 149 0
1 155 -79 0
1 155 -158 0
1 -155 -227 0
1 155 -141 0
1 158 -244 0
1 -158 -155 0
1 -158 236 0
1 158 -149 0
1 158 107 0
1 158 -141 0
1 138 -126 0
1 138 -245 0
1 -138 148 0
1 138 237 0
1 -138 168 0
1 138 158 0
1 138 146 0
1 -237 246 0
1 237 -153 0
1 237 147 0
1 237 148 0
1 237 -128 0
1 -237 247 0
1 237 168 0
1 237 -158 0
1 237 146 0
1 141 -155 0
1 -141 147 0
1 -141 148 0
1 141 -247 0
1 141 -158 0
1 236 248 0
1 236 -238 0
1 -236 -155 0
1 236 147 0
1 236 -148 0
1 236 249 0
1 236 239 0
1 -236 158 0
1 236 -141 0
1 153 145 0
1 -153 244 0
1 -153 74 0
1 -153 -149 0
1 -153 157 0
1 153 -250 0
1 -157 -138 0
1 -157 153 0
1 157 74 0
1 -157 237 0
1 -157 102 0
1 -157 -79 0
1 -246 138 0
1 -246 -163 0
1 -246 248 0
1 246 -244 0
1 246 156 0
1 -246 -152 0
1 -246 85 0
1 246 -237 0
1 246 168 0
1 246 149 0
1 246 -154 0
1 -246 -150 0
1 168 138 0
1 -168 251 0
1 168 -152 0
1 -168 237 0
1 -168 -252 0
1 -168 -149 0
1 168 -159 0
1 168 154 0
1 -244 162 0
1 244 -144 0
1 -244 -155 0
1 244 253 0
1 -244 -168 0
1 -244 -157 0
1 -244 158 0
1 244 -178 0
1 250 -162 0
1 -250 153 0
1 250 254 0
1 -250 -253 0
1 -250 164 0
1 -250 -157 0
1 -250 137 0
1 250 158 0
1 250 178 0
1 251 246 0
1 -251 153 0
1 -251 -255 0
1 -251 -168 0
1 -251 -158 0
1 -149 -246 0
1 149 -251 0
1 -149 153 0
1 -149 -155 0
1 149 -256 0
1 -149 247 0
1 149 -157 0
1 149 257 0
1 -162 -244 0
1 162 -85 0
1 -162 250 0
1 162 159 0
1 -162 -150 0
1 -162 -94 0
1 -164 244 0
1 -164 -85 0
1 -164 -108 0
1 164 -160 0
1 -164 -247 0
1 -164 154 0
1 164 84 0
1 178 258 0
1 -178 -244 0
1 -178 -156 0
1 -178 -253 0
1 178 160 0
1 -178 -250 0
1 178 -159 0
1 178 -154 0
1 178 -169 0
1 -178 166 0
1 -253 152 0
1 -253 -167 0
1 253 259 0
1 -253 -256 0
1 253 -160 0
1 253 -250 0
1 253 -159 0
1 -152 162 0
1 -152 -246 0
1 152 -154 0
1 152 260 0
1 -152 74 0
1 152 -185 0
1 -152 172 0
1 152 -261 0
1 152 176 0
1 -154 -246 0
1 -154 -260 0
1 154 -185 0
1 154 -152 0
1 -154 -253 0
1 154 76 0
1 154 -261 0
1 -154 -262 0
1 -154 -176 0
1 154 -178 0
1 156 162 0
1 156 246 0
1 156 -260 0
1 -156 253 0
1 -156 164 0
1 156 261 0
1 156 263 0
1 -159 162 0
1 -159 -246 0
1 159 -260 0
1 -159 -253 0
1 159 -164 0
1 159 -264 0
1 159 -178 0
1 176 170 0
1 -176 172 0
1 -176 259 0
1 -176 154 0
1 176 -184 0
1 -176 166 0
1 172 -106 0
1 -172 183 0
1 172 259 0
1 -172 161 0
1 172 -171 0
1 172 169 0
1 172 -176 0
1 172 -94 0
1 265 -177 0
1 -265 266 0
1 265 185 0
1 265 -152 0
1 -265 -167 0
1 265 -259 0
1 -265 175 0
1 265 -267 0
1 265 189 0
1 -265 -263 0
1 -185 177 0
1 -185 -266 0
1 -185 -182 0
1 185 259 0
1 185 267 0
1 185 265 0
1 259 -185 0
1 -259 253 0
1 -259 -268 0
1 259 -265 0
1 -166 195 0
1 -166 -181 0
1 -166 -172 0
1 166 -259 0
1 -166 268 0
1 -166 269 0
1 167 -172 0
1 167 -270 0
1 -167 -268 0
1 167 261 0
1 167 178 0
1 -169 -260 0
1 169 -185 0
1 -169 167 0
1 169 253 0
1 169 150 0
1 169 265 0
1 -169 178 0
1 269 -177 0
1 -269 -106 0
1 269 -188 0
1 -269 -259 0
1 -269 -175 0
1 -269 166 0
1 181 177 0
1 181 -266 0
1 -181 -106 0
1 181 99 0
1 181 -188 0
1 -181 259 0
1 -181 175 0
1 -181 -166 0
1 -194 266 0
1 194 195 0
1 -194 271 0
1 -194 272 0
1 194 259 0
1 194 267 0
1 -194 186 0
1 194 -166 0
1 -195 177 0
1 195 273 0
1 195 188 0
1 195 -175 0
1 -195 -186 0
1 195 -194 0
1 -195 274 0
1 195 180 0
1 267 275 0
1 -267 -276 0
1 267 -266 0
1 267 190 0
1 267 -195 0
1 -267 181 0
1 267 -185 0
1 267 193 0
1 267 -265 0
1 -266 -275 0
1 266 -195 0
1 266 -181 0
1 -266 277 0
1 -266 -267 0
1 266 193 0
1 -266 -269 0
1 175 -275 0
1 175 -177 0
1 -175 -278 0
1 175 195 0
1 175 -185 0
1 175 -277 0
1 175 -268 0
1 175 265 0
1 177 275 0
1 -177 -279 0
1 -177 -195 0
1 177 175 0
1 177 268 0
1 -177 -194 0
1 -177 -265 0
1 177 94 0
1 193 188 0
1 -193 -186 0
1 -193 -274 0
1 -193 109 0
1 -190 -266 0
1 190 -278 0
1 -190 188 0
1 -190 193 0
1 -190 186 0
1 190 -274 0
1 -280 -196 0
1 280 267 0
1 280 281 0
1 -276 -279 0
1 -276 -271 0
1 -276 -196 0
1 -276 -186 0
1 276 191 0
1 -274 190 0
1 274 195 0
1 274 282 0
1 -274 283 0
1 -274 -284 0
1 -271 276 0
1 271 -190 0
1 271 193 0
1 271 194 0
1 -271 -274 0
1 -271 283 0
1 -271 -284 0
1 186 -275 0
1 186 190 0
1 186 -187 0
1 186 195 0
1 -186 285 0
1 186 194 0
1 186 -286 0
1 187 275 0
1 -187 276 0
1 -187 -106 0
1 187 195 0
1 -187 277 0
1 -187 194 0
1 -282 -271 0
1 -282 196 0
1 -282 192 0
1 -282 -284 0
1 282 191 0
1 284 271 0
1 284 -192 0
1 284 -282 0
1 284 274 0
1 -284 281 0
1 -284 -191 0
1 287 -271 0
1 -287 -196 0
1 287 -191 0
1 -287 283 0
1 -283 192 0
1 283 -287 0
1 -191 192 0
1 191 287 0
1 -191 280 0
1 -191 284 0
1 192 -282 0
1 -192 -280 0
1 192 284 0
1 -281 -196 0
1 -281 -282 0
1 281 -180 0
1 281 284 0
1 -196 -188 0
1 196 282 0
1 -196 281 0
1 196 -284 0
1 -215 214 0
1 215 207 0
1 215 205 0
1 -215 -212 0
1 -215 208 0
1 214 -130 0
1 214 205 0
1 214 215 0
1 214 288 0
1 214 -208 0
1 214 209 0
1 223 222 0
1 223 -289 0
1 223 207 0
1 -223 -290 0
1 223 291 0
1 -223 -292 0
1 -223 -212 0
1 223 216 0
1 222 -291 0
1 -222 223 0
1 222 -292 0
1 -222 -288 0
1 -222 -216 0
1 -222 -142 0
1 -290 -222 0
1 290 235 0
1 -290 -198 0
1 290 -217 0
1 -290 293 0
1 -290 -223 0
1 290 220 0
1 290 -288 0
1 -288 -214 0
1 288 235 0
1 288 217 0
1 288 223 0
1 -288 233 0
1 288 294 0
1 -288 -220 0
1 -207 222 0
1 207 295 0
1 -207 223 0
1 -207 -215 0
1 296 -222 0
1 296 207 0
1 -296 -206 0
1 217 -289 0
1 -217 211 0
1 217 -224 0
1 217 -290 0
1 217 292 0
1 217 225 0
1 217 -288 0
1 -220 289 0
1 220 -210 0
1 -220 211 0
1 -220 -224 0
1 220 291 0
1 -220 292 0
1 -220 212 0
1 220 213 0
1 -220 225 0
1 220 -288 0
1 -220 139 0
1 220 -216 0
1 235 -221 0
1 -235 -224 0
1 -235 148 0
1 235 290 0
1 -235 -291 0
1 235 -292 0
1 235 219 0
1 233 289 0
1 -233 297 0
1 -233 -224 0
1 233 -235 0
1 233 291 0
1 233 -151 0
1 -233 288 0
1 292 -222 0
1 -292 -289 0
1 -292 298 0
1 -292 -242 0
1 -292 -235 0
1 -292 -217 0
1 292 -205 0
1 292 -223 0
1 -292 233 0
1 -289 -292 0
1 289 299 0
1 289 -230 0
1 -289 -220 0
1 -291 -222 0
1 -291 298 0
1 -291 235 0
1 291 -204 0
1 -291 -223 0
1 -291 233 0
1 -216 298 0
1 216 235 0
1 216 223 0
1 216 -299 0
1 -216 -233 0
1 -216 -208 0
1 232 -289 0
1 -232 297 0
1 232 -224 0
1 -232 -147 0
1 232 133 0
1 232 292 0
1 -232 300 0
1 -232 219 0
1 232 -225 0
1 -232 230 0
1 230 297 0
1 230 -224 0
1 230 -226 0
1 230 -300 0
1 -230 225 0
1 -230 146 0
1 -242 -289 0
1 242 297 0
1 242 221 0
1 -242 234 0
1 242 155 0
1 242 -231 0
1 242 133 0
1 -242 300 0
1 -242 301 0
1 242 -229 0
1 242 131 0
1 301 297 0
1 301 -221 0
1 301 -234 0
1 -301 133 0
1 -301 231 0
1 301 -219 0
1 -301 158 0
1 -301 131 0
1 -219 -248 0
1 -219 -238 0
1 -219 242 0
1 219 -232 0
1 -219 235 0
1 219 302 0
1 -219 -252 0
1 219 213 0
1 -219 239 0
1 219 -301 0
1 219 -233 0
1 221 248 0
1 -221 -211 0
1 -221 -238 0
1 221 -302 0
1 -221 -239 0
1 -221 233 0
1 300 298 0
1 -300 -242 0
1 -300 235 0
1 -300 302 0
1 -300 -212 0
1 -300 303 0
1 -300 -230 0
1 -300 -233 0
1 -297 304 0
1 297 -305 0
1 297 -242 0
1 297 232 0
1 297 -235 0
1 -297 -303 0
1 297 -299 0
1 -238 231 0
1 -238 228 0
1 238 236 0
1 -238 -219 0
1 -238 306 0
1 238 131 0
1 -238 -227 0
1 -238 -141 0
1 -239 221 0
1 239 -238 0
1 -239 234 0
1 -239 -231 0
1 -239 -228 0
1 239 -236 0
1 239 -157 0
1 239 -219 0
1 -239 299 0
1 -239 -229 0
1 -239 -131 0
1 -239 227 0
1 -239 141 0
1 -248 305 0
1 -248 234 0
1 -248 231 0
1 -248 -241 0
1 -248 252 0
1 248 -219 0
1 248 -306 0
1 -248 229 0
1 248 -307 0
1 -252 -248 0
1 -252 -221 0
1 -252 -236 0
1 -252 219 0
1 -252 -229 0
1 -229 258 0
1 -229 -308 0
1 229 248 0
1 229 -242 0
1 -229 231 0
1 229 -309 0
1 -229 256 0
1 229 252 0
1 -229 301 0
1 -229 310 0
1 -231 258 0
1 231 -308 0
1 -231 248 0
1 -231 -226 0
1 231 242 0
1 231 311 0
1 -231 -256 0
1 231 -247 0
1 231 -239 0
1 -231 -301 0
1 -231 312 0
1 306 234 0
1 306 309 0
1 -306 313 0
1 306 252 0
1 -306 -239 0
1 -234 304 0
1 -234 306 0
1 -234 -313 0
1 -234 302 0
1 -234 -239 0
1 -234 -312 0
1 308 251 0
1 308 141 0
1 247 -138 0
1 -247 -243 0
1 247 -237 0
1 247 -302 0
1 247 149 0
1 -247 229 0
1 -247 -307 0
1 -247 240 0
1 258 -314 0
1 258 -315 0
1 258 245 0
1 258 231 0
1 -258 -249 0
1 258 316 0
1 258 -229 0
1 -258 -178 0
1 256 258 0
1 -256 -314 0
1 -256 231 0
1 -256 241 0
1 256 249 0
1 256 -313 0
1 256 316 0
1 -256 -149 0
1 256 -240 0
1 240 -258 0
1 -240 308 0
1 -240 248 0
1 240 -317 0
1 240 -241 0
1 -240 318 0
1 -241 -308 0
1 -241 -248 0
1 -241 -319 0
1 241 228 0
1 241 -254 0
1 -241 -320 0
1 241 -256 0
1 -241 247 0
1 241 -263 0
1 -307 258 0
1 -307 -243 0
1 -307 -321 0
1 -243 308 0
1 243 -248 0
1 243 133 0
1 -243 322 0
1 -243 323 0
1 -243 256 0
1 243 -247 0
1 -243 252 0
1 -243 318 0
1 243 307 0
1 -254 -314 0
1 254 -245 0
1 254 156 0
1 254 316 0
1 -254 159 0
1 263 245 0
1 -263 -324 0
1 -263 -241 0
1 263 -257 0
1 263 321 0
1 317 314 0
1 -317 -255 0
1 317 -156 0
1 -317 -241 0
1 -317 -249 0
1 317 257 0
1 -317 -325 0
1 317 -263 0
1 -317 240 0
1 -245 258 0
1 -245 326 0
1 245 -273 0
1 -245 317 0
1 245 254 0
1 -245 -256 0
1 -245 -316 0
1 245 -263 0
1 316 -258 0
1 -316 260 0
1 -316 317 0
1 -316 -254 0
1 316 237 0
1 316 327 0
1 -316 328 0
1 -314 329 0
1 314 -330 0
1 -314 -331 0
1 314 -319 0
1 -314 -328 0
1 314 332 0
1 -314 -263 0
1 314 141 0
1 249 -330 0
1 -249 319 0
1 249 317 0
1 249 -254 0
1 249 -236 0
1 -249 256 0
1 -249 318 0
1 249 263 0
1 -261 -245 0
1 261 255 0
1 -261 167 0
1 261 -316 0
1 -261 325 0
1 261 154 0
1 -261 -318 0
1 -260 245 0
1 -260 -255 0
1 260 181 0
1 -260 319 0
1 -260 152 0
1 260 -167 0
1 -260 -169 0
1 -272 -255 0
1 -272 -273 0
1 272 -316 0
1 -272 -257 0
1 272 -194 0
1 272 325 0
1 272 262 0
1 272 169 0
1 -272 -264 0
1 -273 195 0
1 273 -316 0
1 273 257 0
1 -273 -262 0
1 -273 -169 0
1 -324 -333 0
1 324 279 0
1 324 -278 0
1 324 -273 0
1 -324 317 0
1 324 -325 0
1 324 272 0
1 325 -273 0
1 -325 -260 0
1 325 334 0
1 -325 268 0
1 325 250 0
1 325 -272 0
1 -325 -263 0
1 -255 333 0
1 -255 -330 0
1 -255 260 0
1 255 -257 0
1 -255 328 0
1 257 -333 0
1 -257 335 0
1 -257 273 0
1 257 255 0
1 -257 -260 0
1 -257 336 0
1 257 328 0
1 257 -272 0
1 -268 324 0
1 268 -337 0
1 268 -167 0
1 -268 -259 0
1 -268 -175 0
1 268 -193 0
1 -268 328 0
1 -268 264 0
1 -268 166 0
1 278 177 0
1 -278 190 0
1 -278 330 0
1 -278 337 0
1 278 -167 0
1 -278 -268 0
1 -278 -325 0
1 278 -262 0
1 -278 169 0
1 -278 166 0
1 338 -177 0
1 -338 -339 0
1 -338 -270 0
1 338 340 0
1 -338 336 0
1 -338 -325 0
1 338 -341 0
1 279 -177 0
1 -279 -324 0
1 279 340 0
1 279 338 0
1 -279 -325 0
1 -279 262 0
1 -279 -342 0
1 -279 -341 0
1 -337 275 0
1 -337 279 0
1 337 -285 0
1 337 -272 0
1 -262 -278 0
1 -262 273 0
1 -262 337 0
1 -262 277 0
1 262 268 0
1 -339 -278 0
1 -339 -273 0
1 -339 -334 0
1 339 268 0
1 -339 343 0
1 -264 339 0
1 264 334 0
1 264 272 0
1 264 -343 0
1 277 177 0
1 277 337 0
1 277 -340 0
1 -277 175 0
1 -277 262 0
1 277 -342 0
1 277 341 0
1 275 -177 0
1 275 333 0
1 -275 187 0
1 -275 -337 0
1 -275 -270 0
1 275 -340 0
1 275 -267 0
1 -275 186 0
1 275 262 0
1 -275 -341 0
1 -275 -284 0
1 285 187 0
1 285 262 0
1 -285 -337 0
1 285 270 0
1 285 287 0
1 285 -340 0
1 285 -344 0
1 285 186 0
1 -285 -341 0
1 285 -342 0
1 285 286 0
1 -286 340 0
1 -286 262 0
1 -286 341 0
1 340 -275 0
1 340 279 0
1 -340 -285 0
1 -340 286 0
1 -341 285 0
1 -341 -340 0
1 341 277 0
1 341 -166 0
1 -270 279 0
1 -270 -167 0
1 -270 -277 0
1 -270 -338 0
1 342 -279 0
1 342 270 0
1 342 -285 0
1 342 277 0
1 -342 338 0
1 -342 -286 0
1 -298 -289 0
1 298 238 0
1 -298 295 0
1 298 293 0
1 298 -300 0
1 -298 -216 0
1 299 -289 0
1 299 -297 0
1 -299 -298 0
1 -299 293 0
1 -299 -292 0
1 299 -345 0
1 299 -294 0
1 299 216 0
1 -305 -346 0
1 305 248 0
1 -305 347 0
1 305 348 0
1 -305 -300 0
1 303 -295 0
1 -303 -347 0
1 -303 -348 0
1 303 252 0
1 303 300 0
1 -293 298 0
1 293 -313 0
1 -293 349 0
1 -293 -303 0
1 -293 -294 0
1 -294 293 0
1 -294 -302 0
1 -294 -350 0
1 -295 207 0
1 345 -298 0
1 -345 -296 0
1 -345 -351 0
1 304 346 0
1 -304 308 0
1 304 234 0
1 -304 -293 0
1 -304 -347 0
1 304 302 0
1 304 300 0
1 304 352 0
1 -302 346 0
1 -302 -297 0
1 302 -304 0
1 -302 221 0
1 -302 293 0
1 302 -348 0
1 302 219 0
1 -302 306 0
1 -302 -294 0
1 315 -258 0
1 -315 346 0
1 315 -313 0
1 -315 348 0
1 -315 -353 0
1 313 346 0
1 -313 354 0
1 313 -234 0
1 313 294 0
1 -313 352 0
1 348 304 0
1 348 309 0
1 -348 -313 0
1 348 292 0
1 348 302 0
1 -348 -355 0
1 -348 303 0
1 -348 356 0
1 348 321 0
1 346 289 0
1 -346 -305 0
1 346 -322 0
1 346 -309 0
1 346 313 0
1 -346 -302 0
1 346 -348 0
1 346 356 0
1 347 -315 0
1 -347 304 0
1 -347 313 0
1 347 -302 0
1 347 303 0
1 347 356 0
1 -347 -352 0
1 352 -315 0
1 352 357 0
1 -352 -305 0
1 -352 347 0
1 352 356 0
1 -312 358 0
1 312 231 0
1 -312 348 0
1 -312 353 0
1 312 229 0
1 -309 -254 0
1 -309 -353 0
1 -309 306 0
1 -309 229 0
1 -309 -307 0
1 309 -312 0
1 -321 -346 0
1 -321 -359 0
1 -321 -243 0
1 321 -322 0
1 -321 348 0
1 -321 -360 0
1 -321 310 0
1 321 307 0
1 322 -346 0
1 322 -354 0
1 -322 -311 0
1 -322 -317 0
1 322 360 0
1 322 353 0
1 322 -361 0
1 -322 -310 0
1 322 307 0
1 322 321 0
1 353 -354 0
1 353 362 0
1 353 309 0
1 -353 313 0
1 -353 -219 0
1 -353 363 0
1 353 -312 0
1 -354 -315 0
1 354 -362 0
1 354 331 0
1 354 -364 0
1 354 -319 0
1 -354 322 0
1 -354 309 0
1 354 -321 0
1 360 358 0
1 -360 362 0
1 -360 -365 0
1 -360 366 0
1 -360 322 0
1 -360 -309 0
1 360 -313 0
1 360 367 0
1 360 363 0
1 360 -368 0
1 -360 -356 0
1 -358 297 0
1 -358 362 0
1 358 365 0
1 -358 366 0
1 358 322 0
1 -358 -313 0
1 -358 -363 0
1 -358 -368 0
1 -358 -321 0
1 318 314 0
1 318 354 0
1 318 -359 0
1 -318 311 0
1 318 243 0
1 -318 310 0
1 -318 353 0
1 -318 -307 0
1 -318 -240 0
1 -319 354 0
1 -319 -260 0
1 319 -366 0
1 319 353 0
1 -319 -361 0
1 -319 318 0
1 319 -310 0
1 -319 307 0
1 332 -331 0
1 332 359 0
1 -332 -311 0
1 -332 361 0
1 332 -320 0
1 332 -249 0
1 332 272 0
1 -332 -368 0
1 -332 -369 0
1 -331 359 0
1 -331 323 0
1 331 320 0
1 331 361 0
1 -331 -310 0
1 310 370 0
1 -310 335 0
1 -310 -330 0
1 -310 -331 0
1 310 319 0
1 -310 322 0
1 310 -229 0
1 310 -328 0
1 -310 332 0
1 310 -318 0
1 -311 -335 0
1 -311 -330 0
1 311 -331 0
1 -311 -231 0
1 311 322 0
1 -311 -371 0
1 -311 -336 0
1 311 -310 0
1 -361 370 0
1 361 -372 0
1 361 306 0
1 361 -318 0
1 -361 321 0
1 359 -234 0
1 -359 322 0
1 -359 318 0
1 328 -255 0
1 328 330 0
1 -328 311 0
1 -328 323 0
1 328 268 0
1 328 -310 0
1 -330 -278 0
1 330 -255 0
1 -330 362 0
1 330 -323 0
1 330 249 0
1 330 -316 0
1 -330 -369 0
1 336 338 0
1 -336 -257 0
1 -336 -373 0
1 -336 310 0
1 336 374 0
1 335 -372 0
1 -335 -255 0
1 335 -311 0
1 335 -323 0
1 -335 -257 0
1 335 336 0
1 -335 -310 0
1 374 -333 0
1 -374 320 0
1 374 -344 0
1 374 -334 0
1 -374 -336 0
1 374 -343 0
1 -320 -333 0
1 320 330 0
1 -320 -374 0
1 -320 241 0
1 -320 -344 0
1 -320 334 0
1 320 336 0
1 -320 -328 0
1 -320 -332 0
1 320 343 0
1 369 -335 0
1 -369 331 0
1 369 323 0
1 -369 -375 0
1 369 371 0
1 -369 -336 0
1 -369 307 0
1 -323 376 0
1 323 370 0
1 323 335 0
1 -323 243 0
1 323 371 0
1 323 -336 0
1 323 369 0
1 -323 -328 0
1 -323 332 0
1 -334 333 0
1 -334 -255 0
1 -334 339 0
1 334 325 0
1 334 -374 0
1 -333 -275 0
1 333 -339 0
1 333 -257 0
1 344 -326 0
1 -344 -374 0
1 -344 -339 0
1 344 320 0
1 -344 -264 0
1 344 343 0
1 343 376 0
1 343 -344 0
1 343 -327 0
1 -343 286 0
1 343 -374 0
1 326 245 0
1 -326 335 0
1 -326 -344 0
1 -326 334 0
1 -326 327 0
1 326 336 0
1 -326 343 0
1 327 -326 0
1 327 -316 0
1 327 -336 0
1 329 333 0
1 -329 344 0
1 -329 377 0
1 -329 -334 0
1 329 -343 0
1 -377 249 0
1 377 344 0
1 377 334 0
1 377 -336 0
1 -356 349 0
1 356 -348 0
1 -356 -360 0
1 356 -350 0
1 356 352 0
1 -366 378 0
1 366 -349 0
1 -366 -347 0
1 366 -351 0
1 -366 350 0
1 -366 352 0
1 368 357 0
1 -368 379 0
1 -368 -349 0
1 -368 332 0
1 365 -357 0
1 365 355 0
1 -365 360 0
1 -365 -368 0
1 -365 351 0
1 -349 -350 0
1 -349 -366 0
1 349 -363 0
1 -350 -372 0
1 -350 365 0
1 -350 366 0
1 -350 -363 0
1 350 -368 0
1 378 -365 0
1 378 366 0
1 351 366 0
1 351 -368 0
1 351 -356 0
1 -363 358 0
1 363 -354 0
1 -363 362 0
1 363 349 0
1 363 380 0
1 -363 -361 0
1 -362 -379 0
1 362 358 0
1 -362 330 0
1 -362 -359 0
1 -362 349 0
1 -362 -360 0
1 -362 -363 0
1 373 -364 0
1 -373 -380 0
1 373 367 0
1 373 350 0
1 372 335 0
1 -372 381 0
1 372 364 0
1 -372 367 0
1 -372 -382 0
1 372 -361 0
1 355 376 0
1 355 362 0
1 355 365 0
1 -355 348 0
1 355 371 0
1 -355 -363 0
1 -379 376 0
1 379 -372 0
1 -379 365 0
1 -379 -371 0
1 -380 357 0
1 380 -362 0
1 -380 347 0
1 -380 373 0
1 380 -363 0
1 380 -368 0
1 357 -362 0
1 357 373 0
1 -357 -352 0
1 371 -381 0
1 371 359 0
1 371 -355 0
1 371 -361 0
1 371 310 0
1 371 -369 0
1 -370 333 0
1 -370 379 0
1 370 381 0
1 370 -359 0
1 370 311 0
1 -370 -361 0
1 370 310 0
1 370 -369 0
1 375 379 0
1 375 -323 0
1 375 355 0
1 -375 367 0
1 -375 -382 0
1 376 381 0
1 376 364 0
1 376 -323 0
1 376 -375 0
1 -376 -355 0
1 -376 367 0
1 -376 -382 0
1 -376 369 0
1 382 -376 0
1 382 -372 0
1 -364 370 0
1 -364 373 0
1 367 376 0
1 367 370 0
1 367 -372 0
1 -367 -375 0
1 367 360 0
1 -381 -376 0
1 -381 -358 0
1 -381 375 0
1 381 373 0
1 -381 -367 0
